000 000 000 000 000 -99 000 000 -99 -99 -99 -99 -99 000 000 000 -99 -99 000 000 000 000 000 001 000 000 000 000 -99 -99 000
000 000 000 000 000 000 000 000 -99 -99 -99 -99 -99 000 000 000 -99 -99 -99 000 001 000 001 001 000 000 000 000 -99 -99 -99
000 000 000 000 000 000 000 -99 -99 -99 -99 001 000 000 000 000 000 000 -99 000 001 001 000 001 000 000 000 000 000 -99 -99
000 000 000 000 000 000 000 000 000 000 -99 001 001 000 000 000 000 000 000 000 001 001 000 000 000 000 000 000 000 -99 -99
000 000 000 000 000 000 000 000 000 000 -99 001 001 001 001 000 000 000 000 000 001 001 000 000 001 000 000 000 000 001 001
000 000 000 000 000 000 000 000 000 000 -99 001 002 004 001 000 000 000 000 -99 000 001 001 001 002 001 001 000 000 002 002
000 000 000 001 000 000 000 000 000 000 000 000 003 002 001 001 000 000 000 000 000 001 002 002 002 002 002 -99 001 001 006
000 000 002 001 001 000 000 000 000 000 000 000 002 001 002 000 000 000 000 000 000 000 000 001 003 003 003 -99 001 002 004
001 001 002 003 002 000 000 000 000 000 000 000 000 000 001 000 000 000 000 000 000 001 003 004 006 004 003 004 002 001 002
001 002 001 000 000 000 000 000 000 000 000 000 000 000 000 000 000 000 000 000 000 002 006 010 012 006 004 004 002 002 001
001 001 000 000 000 000 000 000 000 000 000 000 000 000 000 000 000 000 000 000 000 001 007 013 008 006 005 003 002 002 002
001 001 000 000 000 000 000 000 000 000 000 000 000 000 000 000 000 000 000 000 000 002 006 013 008 004 005 003 003 002 002
001 000 000 000 000 000 000 000 000 000 000 000 000 000 000 000 000 000 000 000 000 002 008 008 014 003 006 002 003 002 003
000 001 001 000 000 000 000 000 000 000 -99 -99 000 000 000 000 000 000 000 000 000 002 006 011 029 011 002 002 002 004 003
001 000 001 000 000 000 000 000 000 000 -99 -99 000 000 000 000 000 001 001 000 000 002 004 012 013 006 003 002 002 002 002
001 001 001 000 000 000 000 000 000 000 000 -99 -99 000 000 000 000 001 001 000 000 000 003 004 004 004 003 002 002 002 001
001 000 000 000 000 000 000 000 000 000 000 000 -99 -99 000 000 000 000 000 001 002 001 002 002 002 003 003 002 002 002 002
004 000 000 000 000 000 000 000 000 000 000 000 000 000 000 000 000 000 000 000 000 000 001 001 002 003 003 002 003 002 001
001 000 000 000 000 -99 000 000 000 000 000 000 000 000 000 000 000 000 000 000 000 000 000 001 002 001 001 002 003 002 001
001 000 001 000 000 000 000 000 000 000 000 000 000 000 000 000 000 000 000 000 000 000 000 001 -99 001 001 002 003 003 001
000 001 001 001 000 000 -99 000 000 000 000 000 000 000 000 000 000 000 000 000 000 000 000 -99 -99 001 001 002 003 -99 -99
000 000 001 001 000 000 000 000 000 000 000 000 000 000 000 000 000 000 000 000 000 000 000 -99 -99 -99 -99 -99 -99 -99 -99
000 000 000 001 000 000 000 000 000 000 000 000 000 000 000 -99 000 000 000 000 000 000 000 -99 -99 -99 -99 -99 -99 -99 002
000 000 000 000 000 000 000 000 000 000 000 000 000 000 000 000 000 000 000 000 000 000 000 -99 -99 -99 -99 -99 -99 -99 002
000 000 000 000 000 000 000 000 000 000 000 000 000 000 000 000 000 000 000 000 000 000 000 -99 -99 -99 -99 -99 -99 003 003
000 000 000 000 000 000 000 000 000 000 000 000 000 000 000 000 000 000 000 000 000 000 000 -99 -99 -99 -99 -99 002 002 002
000 000 000 000 000 000 000 000 000 000 000 000 000 000 000 000 000 000 000 000 000 000 000 -99 -99 -99 -99 -99 -99 001 000
000 000 000 000 000 000 000 000 000 000 000 000 000 000 000 000 000 000 000 000 000 000 000 -99 -99 -99 -99 -99 -99 001 000
000 000 000 000 000 000 000 000 000 000 000 -99 000 000 000 000 -99 -99 000 000 000 000 -99 -99 -99 -99 -99 -99 -99 001 000
000 000 000 000 000 000 000 000 000 000 -99 -99 000 000 000 000 -99 000 000 000 000 000 -99 -99 -99 -99 -99 -99 -99 -99 000
000 000 000 000 000 000 000 000 000 000 -99 -99 000 000 000 000 -99 000 000 000 000 000 -99 -99 -99 -99 -99 -99 -99 -99 000
000 000 000 000 000 000 000 000 000 000 -99 -99 000 000 000 -99 -99 000 000 -99 -99 -99 -99 -99 -99 -99 -99 -99 -99 -99 000
000 000 000 000 000 000 -99 000 000 000 -99 -99 -99 000 000 -99 -99 000 000 -99 -99 -99 -99 -99 000 -99 -99 000 -99 -99 -99
000 000 000 000 000 000 000 000 000 -99 -99 -99 -99 000 000 -99 -99 -99 000 000 -99 -99 -99 -99 000 000 -99 000 000 000 000
000 000 000 000 000 000 000 000 000 000 -99 000 000 000 000 -99 000 -99 -99 -99 000 -99 000 -99 000 000 000 000 000 000 000
000 000 000 000 000 000 000 000 000 000 -99 000 000 000 000 000 000 -99 -99 000 000 001 000 -99 000 000 000 000 000 000 000
000 000 000 000 000 000 000 000 000 000 000 -99 000 000 000 000 000 -99 -99 000 000 000 000 000 000 000 000 000 000 000 000
000 000 000 000 000 000 000 000 000 000 -99 000 000 000 000 000 000 -99 000 000 000 000 000 000 000 000 000 000 000 000 000
000 000 000 000 000 000 -99 -99 -99 000 -99 -99 000 000 000 000 000 000 000 000 000 000 000 000 000 000 000 000 000 000 000
000 000 000 000 000 -99 -99 -99 -99 -99 -99 000 000 000 000 000 000 000 000 000 000 000 000 000 000 -99 000 000 000 000 000
000 000 000 000 000 000 -99 -99 -99 -99 000 000 000 000 000 000 000 000 000 000 000 000 000 000 000 -99 000 000 -99 000 000
000 000 -99 000 000 000 000 -99 -99 000 000 000 000 000 000 000 000 000 000 000 000 000 000 000 000 -99 000 -99 -99 -99 000
000 000 -99 -99 000 000 000 -99 -99 000 000 000 000 000 000 000 000 000 000 000 000 000 000 000 000 000 000 -99 -99 -99 -99
000 000 -99 -99 -99 000 -99 -99 000 000 000 000 000 000 000 000 000 000 000 000 000 000 000 000 000 000 000 000 -99 -99 000
000 000 -99 -99 000 -99 -99 -99 -99 000 000 000 000 000 000 000 000 000 000 000 000 000 000 000 000 000 000 000 -99 -99 -99
000 -99 -99 -99 -99 -99 -99 -99 000 -99 -99 000 000 000 000 -99 000 000 000 -99 000 000 000 000 000 000 000 -99 -99 -99 -99
-99 -99 -99 -99 -99 -99 -99 -99 -99 -99 000 000 000 000 000 -99 -99 000 000 000 000 000 000 000 000 000 000 -99 -99 -99 -99
-99 -99 -99 -99 -99 -99 -99 -99 -99 -99 000 000 000 000 000 -99 -99 000 000 000 000 000 000 000 000 000 -99 -99 -99 -99 -99
-99 -99 -99 -99 -99 -99 -99 -99 -99 -99 -99 000 000 000 000 -99 000 000 000 000 000 000 000 000 000 000 -99 000 -99 -99 -99
-99 -99 -99 -99 -99 -99 -99 -99 -99 -99 -99 -99 000 000 -99 -99 000 000 000 000 000 000 000 000 000 000 000 000 -99 -99 -99
-99 -99 -99 -99 -99 -99 -99 -99 000 000 -99 -99 -99 -99 -99 -99 000 000 000 000 000 000 000 000 000 000 -99 000 -99 -99 -99
-99 -99 -99 -99 -99 -99 -99 -99 000 000 000 -99 -99 -99 -99 -99 000 000 000 000 000 000 000 000 -99 -99 -99 -99 -99 -99 -99
-99 -99 -99 -99 -99 -99 -99 -99 -99 -99 000 -99 -99 -99 -99 -99 000 000 000 000 000 000 000 -99 -99 -99 -99 -99 -99 -99 000
-99 -99 -99 -99 -99 -99 -99 -99 -99 -99 -99 -99 -99 -99 -99 000 -99 000 000 000 000 000 000 -99 -99 -99 -99 -99 -99 -99 000
-99 -99 -99 -99 -99 -99 -99 -99 -99 000 000 -99 -99 000 -99 -99 -99 -99 -99 000 000 000 000 -99 -99 -99 -99 -99 -99 000 000
